NAME : amz0610.125983_125983.tour
COMMENT : Cost = 125983_125983
COMMENT : Found by LKH-AMZ [Keld Helsgaun] Sun May 11 12:37:25 2025
COMMENT : TW viol.: 0 #: 0
TYPE : TOUR
DIMENSION : 122
TOUR_SECTION
78
11
39
102
12
75
59
43
63
1
34
101
91
87
45
108
116
97
35
121
74
110
55
21
57
62
100
6
68
99
93
73
122
114
23
90
49
69
50
17
25
112
18
117
24
42
105
84
32
76
92
8
4
53
33
77
52
15
26
71
20
67
2
60
38
5
82
106
96
31
79
28
56
94
86
95
83
111
89
54
58
40
103
41
120
109
81
9
70
19
27
7
98
61
48
10
51
115
107
22
30
80
16
119
47
85
64
66
13
36
88
46
104
118
14
3
44
65
72
37
113
29
-1
EOF
